50	50290

275 358
386 430
129 141
835 909
900 929
664 570
230 155
850 754
456 514
893 850
35 102
227 282
641 693
162 164
431 430
321 325
682 744
113 67
390 351
565 604
904 916
696 614
671 692
819 779
974 916
231 201
586 640
227 192
270 233
506 526
612 624
842 899
95 187
254 301
496 520
62 87
915 947
221 138
371 290
171 253
922 1004
839 830
373 450
216 142
855 763
662 591
485 428
602 516
745 842
338 413
